p cnf 325 1433
-1 0
-1 -2 -3 -4 -5 -6 -7 -8 -9 -10 -11 -12 -13 0
-1 -14 -15 -16 -17 -18 -19 -20 -21 -22 -23 -24 -25 0
-2 -14 26 0
14 -26 0
2 -26 0
-2 -15 38 0
15 -38 0
2 -38 0
-2 -16 39 0
16 -39 0
2 -39 0
-2 -17 40 0
17 -40 0
2 -40 0
-2 -18 41 0
18 -41 0
2 -41 0
-2 -19 42 0
19 -42 0
2 -42 0
-2 -20 43 0
20 -43 0
2 -43 0
-2 -21 44 0
21 -44 0
2 -44 0
-2 -22 45 0
22 -45 0
2 -45 0
-2 -23 46 0
23 -46 0
2 -46 0
-2 -24 47 0
24 -47 0
2 -47 0
-2 -25 48 0
25 -48 0
2 -48 0
-3 -14 49 0
14 -49 0
3 -49 0
-3 -15 50 0
15 -50 0
3 -50 0
-3 -16 51 0
16 -51 0
3 -51 0
-3 -17 52 0
17 -52 0
3 -52 0
-3 -18 53 0
18 -53 0
3 -53 0
-3 -19 54 0
19 -54 0
3 -54 0
-3 -20 55 0
20 -55 0
3 -55 0
-3 -21 56 0
21 -56 0
3 -56 0
-3 -22 57 0
22 -57 0
3 -57 0
-3 -23 58 0
23 -58 0
3 -58 0
-3 -24 59 0
24 -59 0
3 -59 0
-3 -25 60 0
25 -60 0
3 -60 0
-4 -14 61 0
14 -61 0
4 -61 0
-4 -15 62 0
15 -62 0
4 -62 0
-4 -16 63 0
16 -63 0
4 -63 0
-4 -17 64 0
17 -64 0
4 -64 0
-4 -18 65 0
18 -65 0
4 -65 0
-4 -19 66 0
19 -66 0
4 -66 0
-4 -20 67 0
20 -67 0
4 -67 0
-4 -21 68 0
21 -68 0
4 -68 0
-4 -22 69 0
22 -69 0
4 -69 0
-4 -23 70 0
23 -70 0
4 -70 0
-4 -24 71 0
24 -71 0
4 -71 0
-4 -25 72 0
25 -72 0
4 -72 0
-5 -14 73 0
14 -73 0
5 -73 0
-5 -15 74 0
15 -74 0
5 -74 0
-5 -16 75 0
16 -75 0
5 -75 0
-5 -17 76 0
17 -76 0
5 -76 0
-5 -18 77 0
18 -77 0
5 -77 0
-5 -19 78 0
19 -78 0
5 -78 0
-5 -20 79 0
20 -79 0
5 -79 0
-5 -21 80 0
21 -80 0
5 -80 0
-5 -22 81 0
22 -81 0
5 -81 0
-5 -23 82 0
23 -82 0
5 -82 0
-5 -24 83 0
24 -83 0
5 -83 0
-5 -25 84 0
25 -84 0
5 -84 0
-6 -14 85 0
14 -85 0
6 -85 0
-6 -15 86 0
15 -86 0
6 -86 0
-6 -16 87 0
16 -87 0
6 -87 0
-6 -17 88 0
17 -88 0
6 -88 0
-6 -18 89 0
18 -89 0
6 -89 0
-6 -19 90 0
19 -90 0
6 -90 0
-6 -20 91 0
20 -91 0
6 -91 0
-6 -21 92 0
21 -92 0
6 -92 0
-6 -22 93 0
22 -93 0
6 -93 0
-6 -23 94 0
23 -94 0
6 -94 0
-6 -24 95 0
24 -95 0
6 -95 0
-6 -25 96 0
25 -96 0
6 -96 0
-7 -14 97 0
14 -97 0
7 -97 0
-7 -15 98 0
15 -98 0
7 -98 0
-7 -16 99 0
16 -99 0
7 -99 0
-7 -17 100 0
17 -100 0
7 -100 0
-7 -18 101 0
18 -101 0
7 -101 0
-7 -19 102 0
19 -102 0
7 -102 0
-7 -20 103 0
20 -103 0
7 -103 0
-7 -21 104 0
21 -104 0
7 -104 0
-7 -22 105 0
22 -105 0
7 -105 0
-7 -23 106 0
23 -106 0
7 -106 0
-7 -24 107 0
24 -107 0
7 -107 0
-7 -25 108 0
25 -108 0
7 -108 0
-8 -14 109 0
14 -109 0
8 -109 0
-8 -15 110 0
15 -110 0
8 -110 0
-8 -16 111 0
16 -111 0
8 -111 0
-8 -17 112 0
17 -112 0
8 -112 0
-8 -18 113 0
18 -113 0
8 -113 0
-8 -19 114 0
19 -114 0
8 -114 0
-8 -20 115 0
20 -115 0
8 -115 0
-8 -21 116 0
21 -116 0
8 -116 0
-8 -22 117 0
22 -117 0
8 -117 0
-8 -23 118 0
23 -118 0
8 -118 0
-8 -24 119 0
24 -119 0
8 -119 0
-8 -25 120 0
25 -120 0
8 -120 0
-9 -14 121 0
14 -121 0
9 -121 0
-9 -15 122 0
15 -122 0
9 -122 0
-9 -16 123 0
16 -123 0
9 -123 0
-9 -17 124 0
17 -124 0
9 -124 0
-9 -18 125 0
18 -125 0
9 -125 0
-9 -19 126 0
19 -126 0
9 -126 0
-9 -20 127 0
20 -127 0
9 -127 0
-9 -21 128 0
21 -128 0
9 -128 0
-9 -22 129 0
22 -129 0
9 -129 0
-9 -23 130 0
23 -130 0
9 -130 0
-9 -24 131 0
24 -131 0
9 -131 0
-9 -25 132 0
25 -132 0
9 -132 0
-10 -14 133 0
14 -133 0
10 -133 0
-10 -15 134 0
15 -134 0
10 -134 0
-10 -16 135 0
16 -135 0
10 -135 0
-10 -17 136 0
17 -136 0
10 -136 0
-10 -18 137 0
18 -137 0
10 -137 0
-10 -19 138 0
19 -138 0
10 -138 0
-10 -20 139 0
20 -139 0
10 -139 0
-10 -21 140 0
21 -140 0
10 -140 0
-10 -22 141 0
22 -141 0
10 -141 0
-10 -23 142 0
23 -142 0
10 -142 0
-10 -24 143 0
24 -143 0
10 -143 0
-10 -25 144 0
25 -144 0
10 -144 0
-11 -14 145 0
14 -145 0
11 -145 0
-11 -15 146 0
15 -146 0
11 -146 0
-11 -16 147 0
16 -147 0
11 -147 0
-11 -17 148 0
17 -148 0
11 -148 0
-11 -18 149 0
18 -149 0
11 -149 0
-11 -19 150 0
19 -150 0
11 -150 0
-11 -20 151 0
20 -151 0
11 -151 0
-11 -21 152 0
21 -152 0
11 -152 0
-11 -22 153 0
22 -153 0
11 -153 0
-11 -23 154 0
23 -154 0
11 -154 0
-11 -24 155 0
24 -155 0
11 -155 0
-11 -25 156 0
25 -156 0
11 -156 0
-12 -14 157 0
14 -157 0
12 -157 0
-12 -15 158 0
15 -158 0
12 -158 0
-12 -16 159 0
16 -159 0
12 -159 0
-12 -17 160 0
17 -160 0
12 -160 0
-12 -18 161 0
18 -161 0
12 -161 0
-12 -19 162 0
19 -162 0
12 -162 0
-12 -20 163 0
20 -163 0
12 -163 0
-12 -21 164 0
21 -164 0
12 -164 0
-12 -22 165 0
22 -165 0
12 -165 0
-12 -23 166 0
23 -166 0
12 -166 0
-12 -24 167 0
24 -167 0
12 -167 0
-12 -25 168 0
25 -168 0
12 -168 0
-13 -14 169 0
14 -169 0
13 -169 0
-13 -15 170 0
15 -170 0
13 -170 0
-13 -16 171 0
16 -171 0
13 -171 0
-13 -17 172 0
17 -172 0
13 -172 0
-13 -18 173 0
18 -173 0
13 -173 0
-13 -19 174 0
19 -174 0
13 -174 0
-13 -20 175 0
20 -175 0
13 -175 0
-13 -21 176 0
21 -176 0
13 -176 0
-13 -22 177 0
22 -177 0
13 -177 0
-13 -23 178 0
23 -178 0
13 -178 0
-13 -24 179 0
24 -179 0
13 -179 0
-13 -25 180 0
25 -180 0
13 -180 0
-27 38 49 0
-27 -38 -49 0
27 38 -49 0
27 -38 49 0
-38 -49 247 0
38 -247 0
49 -247 0
39 50 -181 247 0
39 -50 -181 -247 0
39 -50 181 247 0
39 50 181 -247 0
-39 50 181 247 0
-39 -50 181 -247 0
-39 -50 -181 247 0
-39 50 -181 -247 0
39 50 -248 0
39 247 -248 0
39 -50 -247 248 0
-39 50 247 -248 0
-39 -50 248 0
-39 -247 248 0
40 51 -182 248 0
40 -51 -182 -248 0
40 -51 182 248 0
40 51 182 -248 0
-40 51 182 248 0
-40 -51 182 -248 0
-40 -51 -182 248 0
-40 51 -182 -248 0
40 51 -249 0
40 248 -249 0
40 -51 -248 249 0
-40 51 248 -249 0
-40 -51 249 0
-40 -248 249 0
41 52 -183 249 0
41 -52 -183 -249 0
41 -52 183 249 0
41 52 183 -249 0
-41 52 183 249 0
-41 -52 183 -249 0
-41 -52 -183 249 0
-41 52 -183 -249 0
41 52 -250 0
41 249 -250 0
41 -52 -249 250 0
-41 52 249 -250 0
-41 -52 250 0
-41 -249 250 0
42 53 -184 250 0
42 -53 -184 -250 0
42 -53 184 250 0
42 53 184 -250 0
-42 53 184 250 0
-42 -53 184 -250 0
-42 -53 -184 250 0
-42 53 -184 -250 0
42 53 -251 0
42 250 -251 0
42 -53 -250 251 0
-42 53 250 -251 0
-42 -53 251 0
-42 -250 251 0
43 54 -185 251 0
43 -54 -185 -251 0
43 -54 185 251 0
43 54 185 -251 0
-43 54 185 251 0
-43 -54 185 -251 0
-43 -54 -185 251 0
-43 54 -185 -251 0
43 54 -252 0
43 251 -252 0
43 -54 -251 252 0
-43 54 251 -252 0
-43 -54 252 0
-43 -251 252 0
44 55 -186 252 0
44 -55 -186 -252 0
44 -55 186 252 0
44 55 186 -252 0
-44 55 186 252 0
-44 -55 186 -252 0
-44 -55 -186 252 0
-44 55 -186 -252 0
44 55 -253 0
44 252 -253 0
44 -55 -252 253 0
-44 55 252 -253 0
-44 -55 253 0
-44 -252 253 0
45 56 -187 253 0
45 -56 -187 -253 0
45 -56 187 253 0
45 56 187 -253 0
-45 56 187 253 0
-45 -56 187 -253 0
-45 -56 -187 253 0
-45 56 -187 -253 0
45 56 -254 0
45 253 -254 0
45 -56 -253 254 0
-45 56 253 -254 0
-45 -56 254 0
-45 -253 254 0
46 57 -188 254 0
46 -57 -188 -254 0
46 -57 188 254 0
46 57 188 -254 0
-46 57 188 254 0
-46 -57 188 -254 0
-46 -57 -188 254 0
-46 57 -188 -254 0
46 57 -255 0
46 254 -255 0
46 -57 -254 255 0
-46 57 254 -255 0
-46 -57 255 0
-46 -254 255 0
47 58 -189 255 0
47 -58 -189 -255 0
47 -58 189 255 0
47 58 189 -255 0
-47 58 189 255 0
-47 -58 189 -255 0
-47 -58 -189 255 0
-47 58 -189 -255 0
47 58 -256 0
47 255 -256 0
47 -58 -255 256 0
-47 58 255 -256 0
-47 -58 256 0
-47 -255 256 0
48 59 -190 256 0
48 -59 -190 -256 0
48 -59 190 256 0
48 59 190 -256 0
-48 59 190 256 0
-48 -59 190 -256 0
-48 -59 -190 256 0
-48 59 -190 -256 0
48 59 -236 0
48 -236 256 0
48 -59 236 -256 0
-48 59 -236 256 0
-48 -59 236 0
-48 236 -256 0
-28 61 181 0
-28 -61 -181 0
28 -61 181 0
28 61 -181 0
-61 -181 257 0
181 -257 0
61 -257 0
62 182 -191 257 0
-62 182 -191 -257 0
-62 182 191 257 0
62 182 191 -257 0
62 -182 191 257 0
-62 -182 191 -257 0
-62 -182 -191 257 0
62 -182 -191 -257 0
62 182 -258 0
182 257 -258 0
-62 182 -257 258 0
62 -182 257 -258 0
-62 -182 258 0
-182 -257 258 0
63 183 -192 258 0
-63 183 -192 -258 0
-63 183 192 258 0
63 183 192 -258 0
63 -183 192 258 0
-63 -183 192 -258 0
-63 -183 -192 258 0
63 -183 -192 -258 0
63 183 -259 0
183 258 -259 0
-63 183 -258 259 0
63 -183 258 -259 0
-63 -183 259 0
-183 -258 259 0
64 184 -193 259 0
-64 184 -193 -259 0
-64 184 193 259 0
64 184 193 -259 0
64 -184 193 259 0
-64 -184 193 -259 0
-64 -184 -193 259 0
64 -184 -193 -259 0
64 184 -260 0
184 259 -260 0
-64 184 -259 260 0
64 -184 259 -260 0
-64 -184 260 0
-184 -259 260 0
65 185 -194 260 0
-65 185 -194 -260 0
-65 185 194 260 0
65 185 194 -260 0
65 -185 194 260 0
-65 -185 194 -260 0
-65 -185 -194 260 0
65 -185 -194 -260 0
65 185 -261 0
185 260 -261 0
-65 185 -260 261 0
65 -185 260 -261 0
-65 -185 261 0
-185 -260 261 0
66 186 -195 261 0
-66 186 -195 -261 0
-66 186 195 261 0
66 186 195 -261 0
66 -186 195 261 0
-66 -186 195 -261 0
-66 -186 -195 261 0
66 -186 -195 -261 0
66 186 -262 0
186 261 -262 0
-66 186 -261 262 0
66 -186 261 -262 0
-66 -186 262 0
-186 -261 262 0
67 187 -196 262 0
-67 187 -196 -262 0
-67 187 196 262 0
67 187 196 -262 0
67 -187 196 262 0
-67 -187 196 -262 0
-67 -187 -196 262 0
67 -187 -196 -262 0
67 187 -263 0
187 262 -263 0
-67 187 -262 263 0
67 -187 262 -263 0
-67 -187 263 0
-187 -262 263 0
68 188 -197 263 0
-68 188 -197 -263 0
-68 188 197 263 0
68 188 197 -263 0
68 -188 197 263 0
-68 -188 197 -263 0
-68 -188 -197 263 0
68 -188 -197 -263 0
68 188 -264 0
188 263 -264 0
-68 188 -263 264 0
68 -188 263 -264 0
-68 -188 264 0
-188 -263 264 0
69 189 -198 264 0
-69 189 -198 -264 0
-69 189 198 264 0
69 189 198 -264 0
69 -189 198 264 0
-69 -189 198 -264 0
-69 -189 -198 264 0
69 -189 -198 -264 0
69 189 -265 0
189 264 -265 0
-69 189 -264 265 0
69 -189 264 -265 0
-69 -189 265 0
-189 -264 265 0
70 190 -199 265 0
-70 190 -199 -265 0
-70 190 199 265 0
70 190 199 -265 0
70 -190 199 265 0
-70 -190 199 -265 0
-70 -190 -199 265 0
70 -190 -199 -265 0
70 190 -237 0
190 -237 265 0
-70 190 237 -265 0
70 -190 -237 265 0
-70 -190 237 0
-190 237 -265 0
-29 73 191 0
-29 -73 -191 0
29 -73 191 0
29 73 -191 0
-73 -191 266 0
191 -266 0
73 -266 0
74 192 -200 266 0
-74 192 -200 -266 0
-74 192 200 266 0
74 192 200 -266 0
74 -192 200 266 0
-74 -192 200 -266 0
-74 -192 -200 266 0
74 -192 -200 -266 0
74 192 -267 0
192 266 -267 0
-74 192 -266 267 0
74 -192 266 -267 0
-74 -192 267 0
-192 -266 267 0
75 193 -201 267 0
-75 193 -201 -267 0
-75 193 201 267 0
75 193 201 -267 0
75 -193 201 267 0
-75 -193 201 -267 0
-75 -193 -201 267 0
75 -193 -201 -267 0
75 193 -268 0
193 267 -268 0
-75 193 -267 268 0
75 -193 267 -268 0
-75 -193 268 0
-193 -267 268 0
76 194 -202 268 0
-76 194 -202 -268 0
-76 194 202 268 0
76 194 202 -268 0
76 -194 202 268 0
-76 -194 202 -268 0
-76 -194 -202 268 0
76 -194 -202 -268 0
76 194 -269 0
194 268 -269 0
-76 194 -268 269 0
76 -194 268 -269 0
-76 -194 269 0
-194 -268 269 0
77 195 -203 269 0
-77 195 -203 -269 0
-77 195 203 269 0
77 195 203 -269 0
77 -195 203 269 0
-77 -195 203 -269 0
-77 -195 -203 269 0
77 -195 -203 -269 0
77 195 -270 0
195 269 -270 0
-77 195 -269 270 0
77 -195 269 -270 0
-77 -195 270 0
-195 -269 270 0
78 196 -204 270 0
-78 196 -204 -270 0
-78 196 204 270 0
78 196 204 -270 0
78 -196 204 270 0
-78 -196 204 -270 0
-78 -196 -204 270 0
78 -196 -204 -270 0
78 196 -271 0
196 270 -271 0
-78 196 -270 271 0
78 -196 270 -271 0
-78 -196 271 0
-196 -270 271 0
79 197 -205 271 0
-79 197 -205 -271 0
-79 197 205 271 0
79 197 205 -271 0
79 -197 205 271 0
-79 -197 205 -271 0
-79 -197 -205 271 0
79 -197 -205 -271 0
79 197 -272 0
197 271 -272 0
-79 197 -271 272 0
79 -197 271 -272 0
-79 -197 272 0
-197 -271 272 0
80 198 -206 272 0
-80 198 -206 -272 0
-80 198 206 272 0
80 198 206 -272 0
80 -198 206 272 0
-80 -198 206 -272 0
-80 -198 -206 272 0
80 -198 -206 -272 0
80 198 -273 0
198 272 -273 0
-80 198 -272 273 0
80 -198 272 -273 0
-80 -198 273 0
-198 -272 273 0
81 199 -207 273 0
-81 199 -207 -273 0
-81 199 207 273 0
81 199 207 -273 0
81 -199 207 273 0
-81 -199 207 -273 0
-81 -199 -207 273 0
81 -199 -207 -273 0
81 199 -238 0
199 -238 273 0
-81 199 238 -273 0
81 -199 -238 273 0
-81 -199 238 0
-199 238 -273 0
-30 85 200 0
-30 -85 -200 0
30 -85 200 0
30 85 -200 0
-85 -200 274 0
200 -274 0
85 -274 0
86 201 -208 274 0
-86 201 -208 -274 0
-86 201 208 274 0
86 201 208 -274 0
86 -201 208 274 0
-86 -201 208 -274 0
-86 -201 -208 274 0
86 -201 -208 -274 0
86 201 -275 0
201 274 -275 0
-86 201 -274 275 0
86 -201 274 -275 0
-86 -201 275 0
-201 -274 275 0
87 202 -209 275 0
-87 202 -209 -275 0
-87 202 209 275 0
87 202 209 -275 0
87 -202 209 275 0
-87 -202 209 -275 0
-87 -202 -209 275 0
87 -202 -209 -275 0
87 202 -276 0
202 275 -276 0
-87 202 -275 276 0
87 -202 275 -276 0
-87 -202 276 0
-202 -275 276 0
88 203 -210 276 0
-88 203 -210 -276 0
-88 203 210 276 0
88 203 210 -276 0
88 -203 210 276 0
-88 -203 210 -276 0
-88 -203 -210 276 0
88 -203 -210 -276 0
88 203 -277 0
203 276 -277 0
-88 203 -276 277 0
88 -203 276 -277 0
-88 -203 277 0
-203 -276 277 0
89 204 -211 277 0
-89 204 -211 -277 0
-89 204 211 277 0
89 204 211 -277 0
89 -204 211 277 0
-89 -204 211 -277 0
-89 -204 -211 277 0
89 -204 -211 -277 0
89 204 -278 0
204 277 -278 0
-89 204 -277 278 0
89 -204 277 -278 0
-89 -204 278 0
-204 -277 278 0
90 205 -212 278 0
-90 205 -212 -278 0
-90 205 212 278 0
90 205 212 -278 0
90 -205 212 278 0
-90 -205 212 -278 0
-90 -205 -212 278 0
90 -205 -212 -278 0
90 205 -279 0
205 278 -279 0
-90 205 -278 279 0
90 -205 278 -279 0
-90 -205 279 0
-205 -278 279 0
91 206 -213 279 0
-91 206 -213 -279 0
-91 206 213 279 0
91 206 213 -279 0
91 -206 213 279 0
-91 -206 213 -279 0
-91 -206 -213 279 0
91 -206 -213 -279 0
91 206 -280 0
206 279 -280 0
-91 206 -279 280 0
91 -206 279 -280 0
-91 -206 280 0
-206 -279 280 0
92 207 -214 280 0
-92 207 -214 -280 0
-92 207 214 280 0
92 207 214 -280 0
92 -207 214 280 0
-92 -207 214 -280 0
-92 -207 -214 280 0
92 -207 -214 -280 0
92 207 -239 0
207 -239 280 0
-92 207 239 -280 0
92 -207 -239 280 0
-92 -207 239 0
-207 239 -280 0
-31 97 208 0
-31 -97 -208 0
31 -97 208 0
31 97 -208 0
-97 -208 281 0
208 -281 0
97 -281 0
98 209 -215 281 0
-98 209 -215 -281 0
-98 209 215 281 0
98 209 215 -281 0
98 -209 215 281 0
-98 -209 215 -281 0
-98 -209 -215 281 0
98 -209 -215 -281 0
98 209 -282 0
209 281 -282 0
-98 209 -281 282 0
98 -209 281 -282 0
-98 -209 282 0
-209 -281 282 0
99 210 -216 282 0
-99 210 -216 -282 0
-99 210 216 282 0
99 210 216 -282 0
99 -210 216 282 0
-99 -210 216 -282 0
-99 -210 -216 282 0
99 -210 -216 -282 0
99 210 -283 0
210 282 -283 0
-99 210 -282 283 0
99 -210 282 -283 0
-99 -210 283 0
-210 -282 283 0
100 211 -217 283 0
-100 211 -217 -283 0
-100 211 217 283 0
100 211 217 -283 0
100 -211 217 283 0
-100 -211 217 -283 0
-100 -211 -217 283 0
100 -211 -217 -283 0
100 211 -284 0
211 283 -284 0
-100 211 -283 284 0
100 -211 283 -284 0
-100 -211 284 0
-211 -283 284 0
101 212 -218 284 0
-101 212 -218 -284 0
-101 212 218 284 0
101 212 218 -284 0
101 -212 218 284 0
-101 -212 218 -284 0
-101 -212 -218 284 0
101 -212 -218 -284 0
101 212 -285 0
212 284 -285 0
-101 212 -284 285 0
101 -212 284 -285 0
-101 -212 285 0
-212 -284 285 0
102 213 -219 285 0
-102 213 -219 -285 0
-102 213 219 285 0
102 213 219 -285 0
102 -213 219 285 0
-102 -213 219 -285 0
-102 -213 -219 285 0
102 -213 -219 -285 0
102 213 -286 0
213 285 -286 0
-102 213 -285 286 0
102 -213 285 -286 0
-102 -213 286 0
-213 -285 286 0
103 214 -220 286 0
-103 214 -220 -286 0
-103 214 220 286 0
103 214 220 -286 0
103 -214 220 286 0
-103 -214 220 -286 0
-103 -214 -220 286 0
103 -214 -220 -286 0
103 214 -240 0
214 -240 286 0
-103 214 240 -286 0
103 -214 -240 286 0
-103 -214 240 0
-214 240 -286 0
-32 109 215 0
-32 -109 -215 0
32 -109 215 0
32 109 -215 0
-109 -215 287 0
215 -287 0
109 -287 0
110 216 -221 287 0
-110 216 -221 -287 0
-110 216 221 287 0
110 216 221 -287 0
110 -216 221 287 0
-110 -216 221 -287 0
-110 -216 -221 287 0
110 -216 -221 -287 0
110 216 -288 0
216 287 -288 0
-110 216 -287 288 0
110 -216 287 -288 0
-110 -216 288 0
-216 -287 288 0
111 217 -222 288 0
-111 217 -222 -288 0
-111 217 222 288 0
111 217 222 -288 0
111 -217 222 288 0
-111 -217 222 -288 0
-111 -217 -222 288 0
111 -217 -222 -288 0
111 217 -289 0
217 288 -289 0
-111 217 -288 289 0
111 -217 288 -289 0
-111 -217 289 0
-217 -288 289 0
112 218 -223 289 0
-112 218 -223 -289 0
-112 218 223 289 0
112 218 223 -289 0
112 -218 223 289 0
-112 -218 223 -289 0
-112 -218 -223 289 0
112 -218 -223 -289 0
112 218 -290 0
218 289 -290 0
-112 218 -289 290 0
112 -218 289 -290 0
-112 -218 290 0
-218 -289 290 0
113 219 -224 290 0
-113 219 -224 -290 0
-113 219 224 290 0
113 219 224 -290 0
113 -219 224 290 0
-113 -219 224 -290 0
-113 -219 -224 290 0
113 -219 -224 -290 0
113 219 -291 0
219 290 -291 0
-113 219 -290 291 0
113 -219 290 -291 0
-113 -219 291 0
-219 -290 291 0
114 220 -225 291 0
-114 220 -225 -291 0
-114 220 225 291 0
114 220 225 -291 0
114 -220 225 291 0
-114 -220 225 -291 0
-114 -220 -225 291 0
114 -220 -225 -291 0
114 220 -241 0
220 -241 291 0
-114 220 241 -291 0
114 -220 -241 291 0
-114 -220 241 0
-220 241 -291 0
-33 121 221 0
-33 -121 -221 0
33 -121 221 0
33 121 -221 0
-121 -221 292 0
221 -292 0
121 -292 0
122 222 -226 292 0
-122 222 -226 -292 0
-122 222 226 292 0
122 222 226 -292 0
122 -222 226 292 0
-122 -222 226 -292 0
-122 -222 -226 292 0
122 -222 -226 -292 0
122 222 -293 0
222 292 -293 0
-122 222 -292 293 0
122 -222 292 -293 0
-122 -222 293 0
-222 -292 293 0
123 223 -227 293 0
-123 223 -227 -293 0
-123 223 227 293 0
123 223 227 -293 0
123 -223 227 293 0
-123 -223 227 -293 0
-123 -223 -227 293 0
123 -223 -227 -293 0
123 223 -294 0
223 293 -294 0
-123 223 -293 294 0
123 -223 293 -294 0
-123 -223 294 0
-223 -293 294 0
124 224 -228 294 0
-124 224 -228 -294 0
-124 224 228 294 0
124 224 228 -294 0
124 -224 228 294 0
-124 -224 228 -294 0
-124 -224 -228 294 0
124 -224 -228 -294 0
124 224 -295 0
224 294 -295 0
-124 224 -294 295 0
124 -224 294 -295 0
-124 -224 295 0
-224 -294 295 0
125 225 -229 295 0
-125 225 -229 -295 0
-125 225 229 295 0
125 225 229 -295 0
125 -225 229 295 0
-125 -225 229 -295 0
-125 -225 -229 295 0
125 -225 -229 -295 0
125 225 -242 0
225 -242 295 0
-125 225 242 -295 0
125 -225 -242 295 0
-125 -225 242 0
-225 242 -295 0
-34 133 226 0
-34 -133 -226 0
34 -133 226 0
34 133 -226 0
-133 -226 296 0
226 -296 0
133 -296 0
134 227 -230 296 0
-134 227 -230 -296 0
-134 227 230 296 0
134 227 230 -296 0
134 -227 230 296 0
-134 -227 230 -296 0
-134 -227 -230 296 0
134 -227 -230 -296 0
134 227 -297 0
227 296 -297 0
-134 227 -296 297 0
134 -227 296 -297 0
-134 -227 297 0
-227 -296 297 0
135 228 -231 297 0
-135 228 -231 -297 0
-135 228 231 297 0
135 228 231 -297 0
135 -228 231 297 0
-135 -228 231 -297 0
-135 -228 -231 297 0
135 -228 -231 -297 0
135 228 -298 0
228 297 -298 0
-135 228 -297 298 0
135 -228 297 -298 0
-135 -228 298 0
-228 -297 298 0
136 229 -232 298 0
-136 229 -232 -298 0
-136 229 232 298 0
136 229 232 -298 0
136 -229 232 298 0
-136 -229 232 -298 0
-136 -229 -232 298 0
136 -229 -232 -298 0
136 229 -243 0
229 -243 298 0
-136 229 243 -298 0
136 -229 -243 298 0
-136 -229 243 0
-229 243 -298 0
-35 145 230 0
-35 -145 -230 0
35 -145 230 0
35 145 -230 0
-145 -230 299 0
230 -299 0
145 -299 0
146 231 -233 299 0
-146 231 -233 -299 0
-146 231 233 299 0
146 231 233 -299 0
146 -231 233 299 0
-146 -231 233 -299 0
-146 -231 -233 299 0
146 -231 -233 -299 0
146 231 -300 0
231 299 -300 0
-146 231 -299 300 0
146 -231 299 -300 0
-146 -231 300 0
-231 -299 300 0
147 232 -234 300 0
-147 232 -234 -300 0
-147 232 234 300 0
147 232 234 -300 0
147 -232 234 300 0
-147 -232 234 -300 0
-147 -232 -234 300 0
147 -232 -234 -300 0
147 232 -244 0
232 -244 300 0
-147 232 244 -300 0
147 -232 -244 300 0
-147 -232 244 0
-232 244 -300 0
-36 157 233 0
-36 -157 -233 0
36 -157 233 0
36 157 -233 0
-157 -233 301 0
233 -301 0
157 -301 0
158 234 -235 301 0
-158 234 -235 -301 0
-158 234 235 301 0
158 234 235 -301 0
158 -234 235 301 0
-158 -234 235 -301 0
-158 -234 -235 301 0
158 -234 -235 -301 0
158 234 -245 0
234 -245 301 0
-158 234 245 -301 0
158 -234 -245 301 0
-158 -234 245 0
-234 245 -301 0
-37 169 235 0
-37 -169 -235 0
37 -169 235 0
37 169 -235 0
-169 -235 246 0
235 -246 0
169 -246 0
-1 60 71 72 82 83 84 93 94 95 96 104 105 106 107 108 115 116 117 118 119 120 126 127 128 129 130 131 132 137 138 139 140 141 142 143 144 148 149 150 151 152 153 154 155 156 159 160 161 162 163 164 165 166 167 168 170 171 172 173 174 175 176 177 178 179 180 236 237 238 239 240 241 242 243 244 245 246 0
1 -236 0
1 -237 0
1 -238 0
1 -239 0
1 -240 0
1 -241 0
1 -242 0
1 -243 0
1 -244 0
1 -245 0
1 -246 0
1 -60 0
1 -71 0
1 -72 0
1 -82 0
1 -83 0
1 -84 0
1 -93 0
1 -94 0
1 -95 0
1 -96 0
1 -104 0
1 -105 0
1 -106 0
1 -107 0
1 -108 0
1 -115 0
1 -116 0
1 -117 0
1 -118 0
1 -119 0
1 -120 0
1 -126 0
1 -127 0
1 -128 0
1 -129 0
1 -130 0
1 -131 0
1 -132 0
1 -137 0
1 -138 0
1 -139 0
1 -140 0
1 -141 0
1 -142 0
1 -143 0
1 -144 0
1 -148 0
1 -149 0
1 -150 0
1 -151 0
1 -152 0
1 -153 0
1 -154 0
1 -155 0
1 -156 0
1 -159 0
1 -160 0
1 -161 0
1 -162 0
1 -163 0
1 -164 0
1 -165 0
1 -166 0
1 -167 0
1 -168 0
1 -170 0
1 -171 0
1 -172 0
1 -173 0
1 -174 0
1 -175 0
1 -176 0
1 -177 0
1 -178 0
1 -179 0
1 -180 0
302 0
303 0
304 0
305 0
306 0
307 0
-308 0
309 0
310 0
311 0
-312 0
313 0
26 302 -314 0
-26 -302 -314 0
26 -302 314 0
-26 302 314 0
27 303 -315 0
-27 -303 -315 0
27 -303 315 0
-27 303 315 0
28 304 -316 0
-28 -304 -316 0
28 -304 316 0
-28 304 316 0
29 305 -317 0
-29 -305 -317 0
29 -305 317 0
-29 305 317 0
30 306 -318 0
-30 -306 -318 0
30 -306 318 0
-30 306 318 0
31 307 -319 0
-31 -307 -319 0
31 -307 319 0
-31 307 319 0
32 308 -320 0
-32 -308 -320 0
32 -308 320 0
-32 308 320 0
33 309 -321 0
-33 -309 -321 0
33 -309 321 0
-33 309 321 0
34 310 -322 0
-34 -310 -322 0
34 -310 322 0
-34 310 322 0
35 311 -323 0
-35 -311 -323 0
35 -311 323 0
-35 311 323 0
36 312 -324 0
-36 -312 -324 0
36 -312 324 0
-36 312 324 0
37 313 -325 0
-37 -313 -325 0
37 -313 325 0
-37 313 325 0
-1 314 315 316 317 318 319 320 321 322 323 324 325 0
1 -314 0
1 -315 0
1 -316 0
1 -317 0
1 -318 0
1 -319 0
1 -320 0
1 -321 0
1 -322 0
1 -323 0
1 -324 0
1 -325 0
1 -2 -3 -4 -5 -6 -7 8 -9 -10 -11 12 -13 -14 15 16 17 18 19 20 21 22 23 24 25 -26 -27 -28 -29 -30 -31 32 -33 -34 -35 36 -37 38 39 40 41 42 43 44 45 46 47 48 -49 50 51 52 53 54 55 56 57 58 59 60 -61 62 63 64 65 66 67 68 69 70 71 72 -73 74 75 76 77 78 79 80 81 82 83 84 -85 86 87 88 89 90 91 92 93 94 95 96 -97 98 99 100 101 102 103 104 105 106 107 108 109 110 111 112 113 114 115 116 117 118 119 120 -121 122 123 124 125 126 127 128 129 130 131 132 -133 134 135 136 137 138 139 140 141 142 143 144 -145 146 147 148 149 150 151 152 153 154 155 156 157 158 159 160 161 162 163 164 165 166 167 168 -169 170 171 172 173 174 175 176 177 178 179 180 181 182 183 184 185 186 187 188 189 190 191 192 193 194 195 196 197 198 199 200 201 202 203 204 205 206 207 208 209 210 211 212 213 214 215 216 217 218 219 220 221 222 223 224 225 226 227 228 229 230 231 232 233 234 235 236 237 238 239 240 241 242 243 244 245 246 247 248 249 250 251 252 253 254 255 256 257 258 259 260 261 262 263 264 265 266 267 268 269 270 271 272 273 274 275 276 277 278 279 280 281 282 283 284 285 286 287 288 289 290 291 292 293 294 295 296 297 298 299 300 301 -302 -303 -304 -305 -306 -307 308 -309 -310 -311 312 -313 314 315 316 317 318 319 320 321 322 323 324 325 0
1 -2 -3 -4 -5 -6 7 8 9 10 11 12 13 -14 15 16 17 18 -19 -20 21 22 23 24 25 -26 -27 -28 -29 -30 -31 32 -33 -34 -35 36 -37 38 39 40 41 -42 -43 44 45 46 47 48 -49 50 51 52 53 -54 -55 56 57 58 59 60 -61 62 63 64 65 -66 -67 68 69 70 71 72 -73 74 75 76 77 -78 -79 80 81 82 83 84 -85 86 87 88 89 -90 -91 92 93 94 95 96 97 98 99 100 101 102 103 104 105 106 107 108 109 110 111 112 113 114 115 116 117 118 119 120 121 122 123 124 125 126 127 128 129 130 131 132 133 134 135 136 137 138 139 140 141 142 143 144 145 146 147 148 149 150 151 152 153 154 155 156 157 158 159 160 161 162 163 164 165 166 167 168 169 170 171 172 173 174 175 176 177 178 179 180 181 182 183 -184 185 186 -187 188 189 190 191 192 -193 194 -195 196 -197 198 199 200 -201 202 -203 -204 205 -206 207 -208 209 -210 -211 -212 213 -214 215 -216 -217 -218 219 -220 -221 -222 -223 224 -225 -226 -227 228 -229 -230 231 -232 233 -234 -235 236 237 238 239 240 241 242 243 244 245 246 247 248 249 250 251 -252 -253 254 255 256 257 258 259 260 261 262 -263 264 265 266 267 268 269 270 271 -272 273 274 275 276 277 278 279 -280 281 282 283 284 285 286 287 288 289 290 291 292 293 294 295 296 297 298 299 300 301 -302 -303 -304 -305 -306 -307 308 -309 -310 -311 312 -313 314 315 316 317 318 319 320 321 322 323 324 325 0
1 -2 3 4 5 6 7 8 9 10 11 12 13 -14 -15 -16 -17 -18 -19 20 -21 -22 -23 24 -25 -26 -27 -28 -29 -30 -31 32 -33 -34 -35 36 -37 -38 -39 -40 -41 -42 43 -44 -45 -46 47 -48 49 50 51 52 53 54 55 56 57 58 59 60 61 62 63 64 65 66 67 68 69 70 71 72 73 74 75 76 77 78 79 80 81 82 83 84 85 86 87 88 89 90 91 92 93 94 95 96 97 98 99 100 101 102 103 104 105 106 107 108 109 110 111 112 113 114 115 116 117 118 119 120 121 122 123 124 125 126 127 128 129 130 131 132 133 134 135 136 137 138 139 140 141 142 143 144 145 146 147 148 149 150 151 152 153 154 155 156 157 158 159 160 161 162 163 164 165 166 167 168 169 170 171 172 173 174 175 176 177 178 179 180 -181 -182 -183 -184 185 -186 -187 -188 189 -190 -191 -192 -193 194 -195 -196 -197 198 -199 -200 -201 202 -203 -204 -205 206 -207 -208 209 -210 -211 -212 213 -214 215 -216 -217 -218 219 -220 -221 -222 -223 224 -225 -226 -227 228 -229 -230 231 -232 233 -234 -235 236 237 238 239 240 241 242 243 244 245 246 247 248 249 250 251 252 253 254 255 256 257 258 259 260 261 262 263 264 265 266 267 268 269 270 271 272 273 274 275 276 277 278 279 280 281 282 283 284 285 286 287 288 289 290 291 292 293 294 295 296 297 298 299 300 301 -302 -303 -304 -305 -306 -307 308 -309 -310 -311 312 -313 314 315 316 317 318 319 320 321 322 323 324 325 0
1 -2 3 4 5 6 -7 -8 9 10 11 12 13 -14 -15 -16 -17 -18 19 20 21 22 23 24 25 -26 -27 -28 -29 -30 -31 32 -33 -34 -35 36 -37 -38 -39 -40 -41 42 43 44 45 46 47 48 49 50 51 52 53 54 55 56 57 58 59 60 61 62 63 64 65 66 67 68 69 70 71 72 73 74 75 76 77 78 79 80 81 82 83 84 85 86 87 88 89 90 91 92 93 94 95 96 -97 -98 -99 -100 -101 102 103 104 105 106 107 108 -109 -110 -111 -112 -113 114 115 116 117 118 119 120 121 122 123 124 125 126 127 128 129 130 131 132 133 134 135 136 137 138 139 140 141 142 143 144 145 146 147 148 149 150 151 152 153 154 155 156 157 158 159 160 161 162 163 164 165 166 167 168 169 170 171 172 173 174 175 176 177 178 179 180 -181 -182 -183 184 185 186 187 188 189 190 -191 -192 193 194 195 196 197 198 199 -200 201 202 203 204 205 206 207 208 209 210 211 212 213 214 -215 -216 -217 -218 219 220 -221 -222 -223 224 -225 -226 -227 228 -229 -230 231 -232 233 -234 -235 236 237 238 239 240 241 242 243 244 245 246 247 248 249 250 251 252 253 254 255 256 257 258 259 260 261 262 263 264 265 266 267 268 269 270 271 272 273 274 275 276 277 278 279 280 281 282 283 284 285 286 -287 -288 -289 -290 -291 292 293 294 295 296 297 298 299 300 301 -302 -303 -304 -305 -306 -307 308 -309 -310 -311 312 -313 314 315 316 317 318 319 320 321 322 323 324 325 0
